c This is an instance of the heur track of PACE 2020 Challenge, see https://pacechallenge.org/2020/ 
c TYPE: infrastracture 
c ORIGIN: https://gitlab.com/rvb/mwcarp-ob 
c DESCRIPTION: a road network from the Ob generator by René van Bevern, Christian Komusiewicz, and Manuel Sorge (cities that are divided into several components by a river) 
p tdp 369 676
2 196
2 22
2 3
196 21
22 41
22 21
4 5
4 3
4 23
5 6
5 24
6 7
6 25
7 26
7 8
8 9
8 27
9 27
9 28
9 10
27 47
27 28
27 48
27 26
28 29
28 49
10 11
10 29
12 31
12 32
12 33
12 13
31 32
31 30
31 52
31 51
14 34
14 13
14 15
34 33
34 55
13 33
15 56
15 16
56 57
56 76
56 55
16 17
16 35
17 18
17 36
18 19
18 37
19 20
19 38
23 24
23 43
24 25
24 44
25 26
25 45
47 46
47 26
47 48
47 68
30 51
51 50
51 52
51 71
32 33
32 53
33 54
33 55
54 55
54 74
54 53
35 36
35 57
36 37
36 58
37 38
37 59
38 39
38 61
39 20
39 62
40 41
40 21
40 79
41 63
41 42
63 81
63 64
42 3
42 64
42 43
44 66
44 43
44 45
66 65
66 84
66 67
45 46
45 67
46 86
49 48
49 29
49 70
48 69
50 90
90 91
90 89
52 72
52 53
55 75
57 58
57 76
57 77
58 59
76 95
76 77
76 96
76 75
59 60
59 99
60 61
60 78
62 61
62 103
61 101
61 78
64 82
64 65
82 81
82 83
82 105
65 83
65 43
83 84
83 106
67 85
72 92
72 73
72 71
92 91
92 93
73 53
73 74
73 93
74 94
74 75
75 95
95 94
95 96
95 111
77 97
79 118
79 80
118 119
118 138
80 119
80 81
119 139
119 120
81 104
84 107
84 85
107 106
107 108
107 123
85 108
85 86
108 124
87 68
87 126
87 86
87 88
68 69
126 125
126 145
88 69
69 70
91 110
91 71
110 109
110 128
93 129
93 94
129 130
129 163
129 162
129 128
96 97
97 113
97 98
97 112
113 112
113 98
113 132
113 133
113 114
99 98
99 114
99 78
99 100
101 102
101 115
101 100
102 116
102 103
103 117
117 116
117 137
104 120
104 105
105 121
105 106
121 120
121 122
121 155
106 122
111 112
111 130
112 131
115 116
115 135
116 136
135 150
135 136
135 134
136 137
120 140
140 139
140 154
122 141
122 123
141 142
141 156
123 124
123 142
124 125
124 143
142 143
142 157
125 144
144 143
144 145
144 159
127 146
127 109
127 128
146 161
130 165
130 163
130 131
163 162
163 164
163 198
162 161
162 128
162 1
165 164
165 166
165 200
131 147
131 132
147 166
147 148
132 133
132 148
133 134
133 114
133 149
134 169
150 151
150 170
137 151
139 138
139 153
143 158
145 160
161 195
166 179
166 167
148 149
148 167
149 168
151 172
172 185
172 171
152 138
152 186
152 153
152 173
154 153
154 174
154 155
154 173
153 173
174 188
174 175
155 156
155 175
156 157
156 176
157 177
157 158
159 193
159 158
159 160
193 192
193 194
158 177
158 178
160 194
194 234
194 195
164 199
199 200
199 198
179 202
179 180
167 168
168 169
168 181
168 180
169 170
169 182
185 184
185 208
171 170
171 184
173 187
173 188
173 186
187 188
187 186
187 210
175 176
175 189
176 177
176 190
177 178
177 191
177 190
178 192
202 201
202 180
202 220
202 203
181 182
181 180
181 204
182 205
182 183
205 206
205 223
205 204
183 184
183 170
183 206
184 207
208 207
208 225
186 209
209 226
209 210
188 211
188 189
189 190
190 212
190 191
212 211
212 213
212 230
191 192
191 213
195 215
195 1
197 1
197 198
197 217
1 216
1 217
198 218
218 217
218 239
218 219
200 219
200 201
201 242
242 241
242 243
206 207
206 224
223 246
223 222
223 224
225 249
225 224
226 262
226 227
214 192
214 232
214 213
232 231
232 233
232 250
213 231
215 216
215 236
216 217
216 237
217 238
217 239
239 257
239 238
239 240
219 241
241 240
241 278
220 221
220 243
221 203
221 222
221 244
203 204
222 204
222 245
246 259
246 247
246 245
224 247
247 248
247 260
247 261
249 248
249 285
228 211
228 229
228 227
228 264
211 210
229 265
229 230
227 210
227 263
231 230
233 234
233 251
234 252
236 235
236 254
236 237
254 272
237 238
237 255
237 256
257 276
257 256
240 277
278 277
278 296
278 295
278 279
243 281
243 279
243 244
281 280
281 300
281 299
281 258
281 282
244 245
245 258
258 259
259 260
259 282
248 261
285 284
285 261
285 303
251 269
251 250
251 252
252 253
252 270
253 271
255 256
255 274
256 276
260 283
262 286
262 263
264 288
264 265
264 263
264 287
288 287
288 306
265 307
265 266
307 306
307 308
307 332
266 267
266 230
266 308
267 309
267 268
309 352
309 310
309 308
268 310
268 269
268 250
310 353
310 311
269 270
269 311
270 271
270 289
272 290
272 273
290 314
273 291
273 274
291 274
291 314
291 315
274 292
274 275
276 275
276 277
276 294
279 297
279 280
279 296
279 298
297 322
297 298
280 298
300 299
300 325
300 326
300 301
300 282
282 283
283 284
283 301
284 302
284 261
286 304
286 287
304 305
304 329
304 287
287 305
287 263
314 315
314 336
314 313
292 293
292 316
293 294
293 317
293 275
294 295
294 318
295 320
296 320
296 322
320 319
320 321
320 340
298 323
298 299
298 324
323 343
323 322
323 324
299 324
301 302
301 326
302 327
302 303
303 328
328 327
328 369
305 306
305 330
306 330
306 331
308 333
333 332
333 351
352 353
352 351
311 312
312 289
312 334
315 316
315 357
316 317
316 337
357 358
357 356
317 318
318 338
318 319
319 339
321 322
321 341
340 341
340 361
340 339
322 342
342 341
342 363
324 325
324 343
324 344
325 345
325 326
327 326
327 368
326 345
326 346
329 330
329 347
330 331
330 347
330 348
331 332
331 349
332 350
334 354
334 335
354 353
336 335
336 356
337 358
337 338
339 360
339 338
360 361
360 359
341 362
343 363
343 364
344 345
344 365
345 366
345 346
345 365
346 367
367 366
367 368
347 348
348 349
349 350
350 351
355 356
355 335
335 313
358 359
359 338
361 362
362 363
363 364
364 365
365 366
368 369
70 89
78 100
89 109
